POSCAR file written by OVITO Basic 3.8.4
1
20 0 0
0 20 0
0 0 40
C O H 
18 184 380 
Cartesian
  7.38542 8.238 6.37691
  7.40216 8.23125 26.3605
  8.6789 8.56567 6.82457
  8.64646 8.56245 26.858
  6.48055 9.25886 5.90298
  6.51289 9.22226 25.9495
  6.89476 10.5523 5.98884
  6.92193 10.5369 25.9787
  8.13144 10.8798 6.44529
  8.18916 10.8892 26.4374
  9.02387 9.9372 6.88544
  9.03392 9.94949 26.861
  8.53453 12.3547 6.5052
  8.57445 12.3489 26.495
  8.39586 13.124 7.57263
  8.43065 13.1269 27.6008
  8.85363 14.5491 7.63165
  8.83088 14.5736 27.6277
  6.98869 6.9302 6.29392
  6.97087 6.94045 26.3175
  10.2101 14.6939 7.65808
  10.2558 14.6689 27.6448
  18.1909 9.97522 11.2623
  18.1681 9.95929 31.291
  12.3169 2.63433 7.61185
  12.3044 2.62747 27.6312
  14.7812 17.9417 13.6566
  14.8212 17.8935 33.6959
  13.6091 8.86895 7.29095
  13.6368 8.80254 27.2783
  12.8357 11.5529 2.99932
  12.829 11.5661 22.979
  17.5791 3.17766 9.86403
  17.5383 3.15929 29.8752
  17.6423 15.4125 0.376744
  17.6371 15.4313 20.3884
  1.5359 11.8635 16.7921
  1.5192 11.8041 36.803
  19.6673 6.40432 3.9339
  19.6801 6.42748 23.9368
  12.6349 12.684 7.86154
  12.5978 12.7059 27.8949
  16.9875 15.3919 5.31131
  16.9525 15.3641 25.3552
  15.6196 5.59191 16.1739
  15.6286 5.57735 36.1617
  16.8723 18.1097 15.5575
  16.8956 18.0759 35.5992
  9.27396 4.18273 12.4847
  9.25853 4.14433 32.476
  8.34135 5.56629 15.3312
  8.33913 5.58543 35.3441
  1.8283 13.0428 3.60618
  1.8525 13.0714 23.5699
  10.0248 0.535406 17.4695
  10.0238 0.550233 37.4568
  1.40034 3.03766 3.10723
  1.38966 3.01263 23.0965
  9.69014 11.406 2.4971
  9.72373 11.4556 22.4854
  8.64564 13.8326 18.593
  8.62278 13.821 38.6207
  4.51 1.51761 5.52765
  4.47232 1.5056 25.5045
  16.3756 3.25196 4.28683
  16.423 3.24921 24.3112
  7.0695 3.3202 19.805
  7.06685 3.33033 39.7816
  10.0955 7.3484 1.24653
  10.0841 7.33966 21.1999
  10.6637 7.68129 10.121
  10.6572 7.63976 30.1299
  3.54043 4.47404 8.04892
  3.55581 4.50502 28.0764
  8.41892 17.1579 0.688888
  8.39522 17.1184 20.6621
  7.61332 6.57351 11.2102
  7.5457 6.58957 31.209
  16.6681 8.17421 14.4316
  16.6918 8.13486 34.4803
  13.0027 14.1172 2.60871
  13.0187 14.1178 22.6096
  18.1661 7.40802 16.7839
  18.1785 7.46677 36.8254
  1.08189 19.1745 16.7254
  1.12565 19.0982 36.7348
  6.90268 9.38308 10.0545
  6.92737 9.3502 30.0382
  12.1483 10.4251 17.0131
  12.1636 10.4573 37.0106
  10.4793 16.0543 14.0467
  10.4929 16.0535 34.0518
  10.0668 4.54306 18.2633
  10.0761 4.54741 38.3129
  1.65333 11.1871 10.7684
  1.6237 11.183 30.764
  10.6132 19.2099 15.176
  10.6119 19.1762 35.1617
  15.9798 10.0766 12.6729
  15.9699 10.0479 32.6691
  0.697527 10.7985 6.84422
  0.723542 10.7745 26.838
  9.90723 9.78739 12.1728
  9.95792 9.75095 32.2122
  3.53701 3.02157 11.9304
  3.50179 3.0342 31.9408
  7.4883 0.836513 4.61592
  7.52788 0.854756 24.6012
  7.50484 4.36898 8.53368
  7.49545 4.39809 28.5072
  1.07171 10.3114 14.2192
  1.08853 10.3673 34.2067
  4.99203 13.5197 10.2636
  4.99055 13.5444 30.2344
  1.10779 12.5161 0.720477
  1.05922 12.5483 20.7434
  1.91664 14.2756 19.1269
  1.90401 14.263 39.1263
  1.62869 5.99551 8.79199
  1.637 5.99587 28.7774
  15.0025 11.5006 1.25191
  14.9886 11.4464 21.2412
  6.63375 17.4159 16.146
  6.68333 17.4106 36.1341
  14.9751 14.7176 10.0063
  14.9565 14.6956 29.992
  11.8742 15.5465 3.79902
  11.8801 15.5392 23.829
  0.602165 15.8627 8.68808
  0.61106 15.8352 28.6619
  7.91918 14.2659 2.35028
  7.91743 14.2488 22.3799
  14.6696 8.50751 10.7326
  14.6342 8.51133 30.7444
  18.1894 5.7288 0.836447
  18.2107 5.69509 20.8426
  7.69604 11.7634 0.679327
  7.69005 11.7777 20.6872
  13.0355 3.40487 9.6646
  13.0269 3.35851 29.6475
  5.75095 9.9684 19.5092
  5.78389 9.96085 39.5041
  4.23939 3.68859 17.9966
  4.26463 3.68625 38.0445
  5.11378 13.6468 4.27185
  5.10984 13.6361 24.2572
  4.93757 2.29474 2.80118
  4.9906 2.36497 22.7884
  4.90508 8.60762 3.5103
  4.90903 8.5714 23.487
  12.9671 14.4136 19.9127
  12.999 14.4338 39.9324
  3.62736 6.2376 2.35314
  3.6372 6.221 22.3699
  4.46261 6.36522 10.3669
  4.43363 6.32817 30.3304
  6.32214 11.6057 13.1615
  6.31233 11.642 33.1796
  1.05482 2.86358 9.41752
  1.04628 2.88741 29.4022
  16.2643 14.3116 16.8804
  16.2514 14.3236 36.9093
  17.146 11.9218 10.7844
  17.1812 11.9301 30.7551
  10.5825 12.6717 10.371
  10.5819 12.6308 30.3143
  13.4188 2.79956 16.3367
  13.3964 2.85264 36.3477
  9.51735 16.0276 16.2017
  9.50767 15.9925 36.2022
  5.85472 6.6324 16.8863
  5.83693 6.62074 36.8709
  15.1728 3.90387 11.3507
  15.1557 3.90766 31.3608
  19.1843 0.889865 4.21247
  19.1619 0.846853 24.2173
  2.16054 17.8413 18.4239
  2.12566 17.8235 38.4491
  13.7459 5.35317 19.4309
  13.7198 5.37889 39.4552
  15.2359 13.2592 19.1865
  15.2827 13.2689 39.2189
  13.6338 13.8302 12.1
  13.6325 13.8083 32.1056
  4.44513 16.3558 2.43577
  4.46003 16.3666 22.4042
  7.71134 1.2332 7.89661
  7.67745 1.28534 27.911
  1.24203 9.50344 16.9899
  1.2307 9.49778 37.0128
  12.2317 0.019609 4.12712
  12.2666 0.00272549 24.1329
  2.67763 0.832575 13.3645
  2.69983 0.784724 33.4185
  2.30335 15.95 15.1481
  2.34252 15.9453 35.0977
  13.419 18.6236 10.6479
  13.4202 18.6305 30.6193
  0.83998 4.0318 5.74194
  0.885926 4.0539 25.7191
  10.8346 19.645 2.20794
  10.821 19.6538 22.203
  7.7481 6.34611 6.72405
  7.76182 6.38595 26.6237
  5.59225 8.94665 5.62369
  5.57248 8.96717 25.5512
  6.2033 11.3206 5.71405
  6.2007 11.3763 25.6707
  10.0372 10.0848 7.25734
  10.0114 10.0953 27.2737
  9.30518 7.73336 7.20382
  9.38378 7.77596 27.1982
  8.9805 12.6939 5.65256
  9.04627 12.7203 25.5342
  7.90744 12.6498 8.57904
  7.9795 12.7571 28.4671
  8.39456 15.004 8.476
  8.43226 14.9735 28.5342
  8.3188 14.9738 6.72715
  8.43351 15.0383 26.6692
  10.5293 14.2692 8.53586
  10.5496 14.2057 28.4591
  19.1011 9.94905 11.5512
  19.1894 10.0068 31.5885
  18.0757 9.20319 10.6435
  18.122 9.23387 30.7049
  11.3983 2.31273 7.39298
  11.3624 2.33039 27.3574
  12.4936 3.65352 7.23376
  12.4365 3.55769 27.2813
  15.0814 18.4358 12.9297
  15.0288 18.3405 32.8472
  14.2455 17.1335 13.5244
  14.1721 17.1316 33.5718
  14.5556 8.76329 7.12947
  14.684 8.76294 27.0521
  13.2546 7.89331 7.09804
  13.2659 7.86335 27.1749
  13.6945 11.3768 3.33345
  13.7688 11.3963 23.2277
  12.3373 10.7252 3.22318
  12.4045 10.6955 23.2768
  17.3768 3.88184 10.6066
  17.2992 3.92174 30.5329
  18.1368 3.4983 9.0937
  18.1754 3.45284 29.0744
  16.8513 14.6589 0.15547
  17.003 14.7603 20.0212
  18.5542 15.0621 0.388731
  18.5331 15.0052 20.4303
  1.11192 12.6325 16.6116
  1.09085 12.6511 36.6281
  2.47251 12.1344 17.0593
  2.47196 12.1271 37.0404
  19.9752 5.57917 4.39027
  0.0795822 5.56639 24.4058
  18.6893 6.25292 3.76401
  18.7412 6.23714 23.7897
  12.8663 11.8556 7.53942
  12.9048 11.8032 27.5956
  11.8919 13.0268 7.15224
  11.8349 12.9381 27.2036
  17.2171 15.4376 6.3896
  17.2526 15.388 26.3292
  16.4946 14.5938 5.147
  16.2746 14.6251 25.123
  15.5362 4.66495 16.6638
  15.5082 4.73991 36.683
  14.9154 6.15257 16.4705
  14.8045 6.15243 36.4609
  16.4745 17.0781 15.4803
  16.4716 17.135 35.4756
  17.746 18.1839 15.3467
  17.8053 18.0955 35.4113
  8.6717 3.57013 11.9409
  8.67845 3.49898 31.8476
  10.1373 4.39572 12.0312
  10.2108 4.33701 32.067
  8.50625 4.64556 15.7302
  8.3664 4.59666 35.6613
  9.30662 5.86944 15.05
  9.28871 5.74544 34.9687
  2.73733 13.2898 3.51643
  2.66074 13.2603 23.6758
  1.6718 11.9354 3.69666
  1.75323 12.0376 23.6329
  9.15952 0.0794679 17.3
  9.11355 0.0624421 37.4337
  9.97677 1.44474 17.4994
  9.9401 1.56686 37.4857
  0.882987 3.77253 3.5431
  0.85106 3.60832 23.5774
  1.36068 2.99394 2.0793
  1.30934 2.99497 22.0513
  10.4188 12.0043 2.40111
  10.4893 12.0073 22.4132
  10.0627 10.3373 2.69502
  9.94222 10.4037 22.7586
  9.41745 13.7651 17.9976
  9.48523 13.7597 38.0133
  8.74103 14.5366 19.3151
  8.747 14.4575 39.4163
  5.32726 2.03184 5.67565
  5.24786 1.97973 25.69
  4.21422 1.09175 6.33824
  4.16222 1.0715 26.2752
  16.6753 3.74149 5.18738
  16.7205 3.71125 25.1742
  16.0857 2.34323 4.41049
  16.0444 2.34375 24.5114
  7.42658 2.4034 19.778
  7.493 2.29103 39.6075
  7.52965 3.88955 19.0768
  7.53838 3.9124 39.1468
  10.5174 7.83579 2.01645
  10.4078 7.92196 21.9415
  9.72168 6.37356 1.61465
  9.71064 6.41625 21.5535
  10.1306 7.51788 9.32873
  10.1429 7.63382 29.3461
  11.5398 8.20342 9.9124
  11.4951 8.2199 29.9486
  3.66971 3.49009 7.86591
  3.75254 3.58471 27.9149
  3.94331 5.02643 7.29166
  3.84723 5.02896 27.3825
  9.12555 16.8684 1.32206
  9.16071 16.86 21.4304
  8.04828 18.0582 0.94125
  8.02602 18.0612 20.9796
  7.80378 5.6447 11.4042
  7.83882 5.63728 31.3439
  8.44664 7.22832 11.2662
  8.34371 7.22864 31.3965
  17.3295 7.93762 13.7477
  17.2809 7.83465 33.7887
  16.2056 7.41362 14.8207
  16.2599 7.338 34.8508
  13.8263 14.2784 3.25403
  13.757 14.1859 23.2307
  13.3082 14.4443 1.73056
  13.2774 14.4876 21.7447
  18.9403 7.77971 16.1817
  18.8498 7.74959 36.236
  17.625 8.08073 16.7989
  17.5114 8.08736 36.8587
  0.366274 19.7954 16.9163
  0.263389 19.9059 36.9268
  1.79564 19.6257 16.3187
  1.80056 19.5216 36.1255
  7.8358 9.16574 10.433
  7.83801 9.19561 30.5508
  6.24803 9.0444 10.6256
  6.21552 9.06284 30.689
  11.5187 11.2023 16.6171
  11.5244 11.1593 36.7407
  11.7985 10.1732 17.8204
  11.7634 10.1813 37.8959
  9.52822 16.5607 14.1138
  9.49608 16.5051 34.0742
  10.3921 15.0746 14.0588
  10.3644 15.037 34.1873
  9.17947 4.46274 17.8041
  9.35925 4.42274 37.8157
  10.4216 3.55472 18.4053
  10.4947 3.61915 38.4784
  2.29594 11.6843 10.1982
  2.40218 11.62 30.1315
  1.02131 10.5911 10.2594
  1.02314 10.6068 30.1812
  10.667 18.9365 16.1202
  10.7754 18.9593 36.121
  9.8839 19.8683 15.0787
  9.84877 19.8499 35.091
  15.3024 10.7859 12.7117
  15.1602 10.8156 32.7924
  15.4979 9.19349 12.621
  15.5065 9.16493 32.6438
  1.0466 9.71063 6.60415
  1.07598 9.773 26.5415
  0.109026 10.806 7.53294
  0.0534048 10.748 27.5081
  10.9406 9.97319 12.1438
  10.8852 9.93894 32.2083
  9.79767 8.74931 12.0262
  9.79004 8.73905 32.1083
  4.30996 3.67882 12.1344
  4.24379 3.70654 32.2094
  2.70774 3.48515 12.106
  2.62665 3.46832 32.1978
  6.97151 0.228274 4.90487
  6.92619 0.142599 24.8885
  7.81026 1.38542 5.29702
  7.85996 1.42081 25.3757
  7.4866 4.33855 7.46416
  7.566 4.34089 27.553
  6.69986 4.01017 8.8823
  6.56046 3.90745 28.8053
  1.85105 10.7644 13.8193
  1.84935 10.759 33.753
  0.7373 9.62516 13.6189
  0.804156 9.48106 33.7483
  4.18041 13.1629 10.7488
  4.10859 13.2097 30.7366
  5.61571 13.5949 11.0121
  5.62004 13.532 31.0383
  0.661307 12.2776 1.66564
  0.683418 12.364 21.683
  0.407129 12.2721 19.9419
  0.503204 12.272 39.8741
  1.20145 13.8705 18.3847
  1.19473 14.0078 38.3737
  2.09075 13.414 19.5432
  2.14474 13.3559 39.5582
  2.10406 6.811 9.05228
  2.12734 6.76008 29.025
  0.813581 6.44757 8.25877
  0.933086 6.36697 28.2248
  14.6927 12.4165 1.06586
  14.6449 12.3457 20.9986
  16.0281 11.4255 1.02549
  16.0199 11.4754 21.0864
  7.3621 16.7759 16.3252
  7.46905 16.7691 36.2384
  5.75568 16.9383 15.6156
  5.90497 16.9419 35.7205
  15.8377 14.9557 10.5248
  15.8758 14.9235 30.5021
  14.7985 13.6586 10.0673
  14.6701 13.602 30.017
  11.481 16.3396 3.76812
  11.3666 16.4789 23.8091
  11.2047 14.7119 4.03637
  11.1483 14.698 23.9013
  0.697215 15.5322 7.7459
  0.609779 15.5611 27.734
  1.42345 15.506 9.04197
  1.45111 15.5203 28.9558
  8.75408 14.8699 2.20182
  8.72664 14.7842 22.3101
  8.1882 13.3706 2.21841
  8.21915 13.3053 22.2347
  14.1118 7.65518 10.9037
  14.1872 7.65048 30.7777
  14.4178 8.87155 9.84297
  14.3561 8.97124 29.8739
  18.0092 6.31188 1.69247
  17.9846 6.23805 21.693
  18.1541 6.42628 0.102957
  18.1036 6.43046 20.093
  7.82224 12.5362 0.0704339
  7.83479 12.4853 20.0687
  8.40391 11.0438 0.614902
  8.50466 11.0822 20.5524
  12.3626 3.15124 10.273
  12.3305 3.12798 30.2135
  12.8965 4.30913 9.41714
  12.8654 4.32162 29.4832
  6.79903 10.0593 19.5835
  6.80395 9.97221 39.6209
  5.58355 8.91147 19.4881
  5.62937 9.01475 39.4818
  5.10603 4.22893 18.0368
  5.09784 4.13128 37.9634
  4.53577 2.69826 18.1504
  4.52079 2.72154 38.0917
  5.51046 14.5312 4.1394
  5.40068 14.5927 24.1584
  5.9619 13.0882 4.38182
  5.85847 13.0472 24.3415
  5.36301 3.01708 2.11728
  5.23031 2.94837 22.0233
  3.93654 2.18208 2.61937
  4.01992 2.22813 22.5564
  4.05484 8.08419 3.50813
  4.05688 8.12558 23.516
  4.78352 9.65563 3.39612
  4.88475 9.62008 23.3717
  12.143 15.0651 19.8841
  12.1387 15.0673 39.8783
  12.5291 13.435 19.8675
  12.5466 13.4674 39.9261
  2.72162 6.53977 2.28255
  2.67579 6.53643 22.324
  3.53926 5.237 2.41584
  3.56082 5.2233 22.4591
  5.13616 5.61949 10.455
  5.04865 5.62848 30.4822
  4.88423 7.20379 10.2611
  4.95609 7.27923 30.263
  5.4863 11.2437 13.2371
  5.40419 11.1777 33.1608
  7.18304 11.0001 13.1547
  7.08927 10.9542 33.1105
  0.337246 2.28478 9.04621
  0.378908 2.27472 29.1518
  1.86459 2.21105 9.67885
  1.89432 2.24459 29.6487
  15.4885 13.6307 16.9445
  15.6275 13.6302 36.9701
  17.1117 13.8482 16.9187
  17.1513 13.8228 36.9669
  17.7153 12.703 10.6022
  17.6606 12.7512 30.596
  16.4053 11.8101 9.94668
  16.4643 11.7632 29.9368
  10.9802 12.2237 9.3442
  11.0645 12.2774 29.4639
  9.6681 12.9478 10.2808
  9.66707 12.9441 30.2287
  12.7721 2.22208 15.9621
  12.6432 2.191 36.0176
  13.3905 3.84392 16.1157
  13.2455 3.78042 36.0912
  9.12962 15.1818 16.1747
  9.07242 15.2109 36.2282
  10.3885 15.8727 16.2139
  10.4403 15.7813 36.2369
  5.65604 7.55837 17.1439
  5.55505 7.53655 37.1184
  5.01739 6.24698 16.6164
  4.9609 6.30965 36.5762
  15.3949 4.83015 10.7867
  15.3611 4.81864 30.8214
  15.802 3.86777 12.2178
  15.8191 3.95027 32.1227
  19.3429 1.81221 3.92854
  19.3388 1.71122 23.9536
  18.4197 0.844076 4.89381
  18.4103 0.86588 24.9216
  1.33544 17.2914 18.0624
  1.41383 17.3221 38.0194
  2.39053 17.496 19.2838
  2.39646 17.5669 39.3564
  13.8788 4.51032 19.7475
  13.9087 4.46327 39.7565
  12.6233 5.34283 19.1971
  12.6947 5.36844 39.1622
  15.9043 12.5473 19.0646
  16.032 12.4911 39.1045
  15.6025 14.1771 19.2646
  15.6029 14.1562 39.1044
  13.4832 14.8592 11.8011
  13.6083 14.8283 31.7999
  12.7206 13.4615 12.3562
  12.7836 13.473 32.3241
  3.68626 16.0072 2.69612
  3.68264 15.905 22.6973
  5.02008 15.6675 1.95111
  4.9409 15.77 21.9444
  7.00936 1.91455 7.60136
  7.08492 1.91577 27.5704
  8.43309 1.68956 8.54171
  8.36205 1.7432 28.4592
  2.20057 9.53002 16.8508
  2.1357 9.4971 36.8641
  0.864917 8.63604 16.9171
  0.823336 8.7278 36.8936
  11.2031 19.8997 4.55884
  11.3167 19.9913 24.5638
  12.6936 19.0033 4.24481
  12.6215 18.964 24.03
  2.74872 1.71851 13.7298
  2.70755 1.79174 33.737
  2.93429 0.775778 12.4079
  2.92633 0.716117 32.3677
  2.55074 16.4049 14.2908
  2.71263 16.2568 34.1879
  3.02622 15.6039 15.6282
  3.02772 15.5173 35.6524
  13.0456 17.6076 10.6422
  13.0675 17.6725 30.5986
  14.4173 18.6613 10.6232
  14.4267 18.5096 30.727
  1.67274 3.53383 5.8824
  1.54207 3.50365 25.9969
  1.11694 4.95579 6.04626
  1.08095 4.92975 26.0442
  10.9303 19.7282 1.32667
  10.8665 19.8153 21.2715
  10.7328 18.7103 2.41586
  10.7625 18.7674 22.2902
