POSCAR file written by OVITO Basic 3.8.4
1
20 0 0
0 20 0
0 0 40
C O H 
18 184 380 
Cartesian
  7.38247 8.13879 6.42577
  7.44672 8.37908 26.321
  8.4881 8.48696 6.98117
  8.60361 8.54289 26.9213
  6.47212 9.00746 5.81197
  6.30686 9.24499 25.9262
  6.94102 10.6345 5.97074
  6.92358 10.4789 26.0109
  8.15935 10.7994 6.4215
  8.47348 10.8215 26.2722
  9.00414 10.1095 7.08052
  9.26622 10.0196 26.8435
  8.48155 12.5512 6.55325
  8.72858 12.1813 26.4112
  8.30177 13.1863 7.68814
  8.54408 12.9241 27.5264
  8.81168 14.451 7.69151
  8.77366 14.4472 27.5745
  6.88858 6.97071 6.36937
  6.83922 7.01523 26.0947
  10.0799 14.7519 7.68564
  10.296 14.72 27.5976
  17.9227 9.96277 11.0521
  18.0262 9.74863 31.2923
  12.3107 2.64166 7.59848
  12.3714 2.65635 27.6623
  14.679 17.9996 13.7491
  14.8938 17.852 33.7593
  13.6863 8.84133 7.38166
  13.5469 8.66072 27.2621
  12.7138 11.4862 2.95954
  12.7821 11.505 22.966
  17.6465 3.18572 9.84616
  17.4941 3.20049 29.7987
  17.6156 15.4995 0.330015
  17.5763 15.4236 20.3671
  1.47767 12.0042 16.7012
  1.68114 11.8258 36.8396
  19.6274 6.3599 3.88053
  19.905 6.38438 23.786
  12.3038 12.7418 7.93218
  12.7969 12.727 27.7595
  17.1004 15.2818 5.24986
  16.8614 15.3231 25.2675
  15.6626 5.60926 16.0671
  15.6648 5.50533 36.2056
  16.8102 18.1581 15.4941
  16.8559 17.9663 35.8537
  9.2139 4.03873 12.4506
  9.29567 4.05976 32.5176
  8.3698 5.57238 15.3361
  8.41489 5.61966 35.3109
  1.83817 13.1337 3.76957
  1.91965 13.061 23.4965
  9.868 0.480394 17.5616
  9.96183 0.620579 37.4246
  1.56156 2.98966 3.13153
  1.41143 2.96776 23.0766
  9.67238 11.4259 2.59227
  9.71316 11.5032 22.4017
  8.81899 13.8498 18.4917
  8.57305 13.9023 38.7193
  4.54233 1.69442 5.72746
  4.55975 1.41018 25.5106
  16.2203 3.24104 4.32661
  16.5077 3.2685 24.3677
  7.009 3.25107 19.802
  6.99438 3.12783 39.7564
  10.0488 7.33661 1.28222
  10.1364 7.20923 21.2501
  10.7281 7.77494 10.0158
  10.6617 7.76611 30.2357
  3.46389 4.41741 8.00238
  3.24121 4.33294 28.0268
  8.20776 17.222 0.726456
  8.40259 17.0315 20.5236
  7.81427 6.55465 11.1035
  7.56231 6.6387 31.2126
  16.6277 8.12223 14.4705
  16.8284 7.98118 34.5277
  13.0024 14.0391 2.75133
  13.0356 14.0878 22.5311
  18.3133 7.36888 16.5576
  18.0081 7.54614 36.7692
  1.05564 19.188 16.762
  1.08427 19.156 36.7251
  6.82284 9.47298 9.91745
  7.0542 9.42734 30.1236
  12.3215 10.3713 16.9864
  12.2412 10.3782 36.8216
  10.5251 16.112 14.0712
  10.5918 16.1153 34.1934
  10.1307 4.45858 18.2762
  10.056 4.59704 38.325
  1.78696 11.2051 10.7345
  1.64987 11.2828 30.8577
  10.6099 19.1881 15.0565
  10.5869 19.1728 35.0119
  16.0258 10.1431 12.6555
  15.9377 10.0743 32.5319
  0.657676 10.7499 6.88175
  0.800647 10.7448 26.8084
  9.69663 9.89749 11.9912
  9.9574 9.69519 32.2268
  3.67085 2.97282 11.9367
  3.54448 2.93569 32.02
  7.40199 0.825466 4.77685
  7.61161 0.919972 24.5355
  7.49435 4.37814 8.60303
  7.5453 4.30765 28.5031
  0.947239 10.2273 14.3495
  1.0339 10.3855 34.2065
  4.86384 13.5868 10.29
  5.03402 13.5769 30.1464
  1.08354 12.4754 0.493464
  0.908325 12.5845 20.7919
  1.93816 14.4543 19.1268
  1.7281 14.1947 39.1398
  1.64027 6.01142 8.82329
  1.51382 6.10227 28.725
  14.9178 11.4799 1.29252
  14.9527 11.4618 21.1597
  6.66794 17.358 15.9515
  6.73297 17.3762 35.9658
  14.9302 14.5761 10.0327
  14.8092 14.7918 29.9765
  11.8778 15.4946 3.76454
  11.7674 15.535 23.9316
  0.517616 15.8211 8.71506
  0.527666 15.9448 28.8012
  8.03112 14.2507 2.15087
  7.97866 14.2936 22.4598
  14.7271 8.45942 10.8688
  14.8263 8.53253 30.7656
  18.0971 5.57711 0.809967
  18.2018 5.70993 20.8035
  7.69964 11.6101 0.702242
  7.85582 11.8726 20.7256
  13.0823 3.55268 9.7603
  13.03 3.12929 29.6134
  5.73086 9.99807 19.3634
  5.78087 10.0138 39.6504
  4.07388 3.72232 18.0687
  4.2064 3.61572 38.1365
  5.10946 13.6269 4.31193
  5.10614 13.5891 24.2383
  4.88557 2.2314 2.82251
  4.85243 2.43267 22.7766
  4.95562 8.64575 3.46157
  4.6264 8.80629 23.4904
  13.1221 14.5479 19.9063
  13.0451 14.4347 39.9824
  3.56453 6.35595 2.27475
  3.68682 6.44749 22.3988
  4.51941 6.41412 10.2294
  4.56811 6.38496 30.2485
  6.46254 11.4922 13.2339
  6.31621 11.6029 33.2942
  0.916238 2.81746 9.40771
  1.03525 2.83508 29.5316
  16.223 14.3778 16.9773
  16.1811 14.3521 36.945
  17.1556 11.8069 10.6043
  17.08 12.1059 30.7163
  10.7081 12.7199 10.4304
  10.5115 12.6772 30.1457
  13.5513 2.80767 16.2682
  13.4741 2.80184 36.348
  9.30547 16.0875 16.3246
  9.42406 15.8854 36.2875
  5.76142 6.62433 16.8537
  5.85115 6.65168 36.8858
  15.1771 4.06449 11.4976
  14.9686 3.99551 31.418
  19.1467 0.891754 4.23786
  19.0299 0.743611 24.2181
  2.11586 17.8149 18.4272
  1.96479 17.756 38.4606
  13.958 5.30468 19.3337
  13.6984 5.45197 39.3634
  15.187 13.2793 19.2361
  15.1738 13.0978 39.2994
  13.5969 13.7425 12.1634
  13.6064 13.8364 32.3076
  4.49921 16.4976 2.36633
  4.3827 16.4311 22.2869
  7.90526 1.1382 8.04811
  7.67499 1.22402 27.8196
  1.22372 9.32142 16.9361
  1.20019 9.27063 36.983
  12.102 0.0437654 3.95753
  12.2821 19.9808 24.215
  2.67226 1.00624 13.3047
  2.60116 0.729126 33.4741
  2.14813 15.9008 15.2767
  2.39552 15.9727 35.0846
  13.424 18.5739 10.6972
  13.4431 18.7293 30.6131
  0.713069 4.08192 5.83225
  0.902615 3.90722 25.7297
  10.945 19.5701 2.22508
  10.7402 19.7486 22.0552
  7.73395 6.39164 6.93794
  7.76346 6.73217 26.8174
  5.56886 9.43906 5.76593
  5.56641 8.95747 25.6931
  6.27148 11.2964 5.39214
  6.73178 11.4139 25.1174
  10.19 10.4092 7.12906
  9.93711 10.0663 27.7326
  8.75581 7.97358 7.84057
  9.21793 7.54124 27.5933
  9.07537 12.673 5.29704
  9.00693 12.7286 25.6384
  7.94011 12.5914 8.67554
  7.87667 12.6424 28.5564
  7.92495 14.8233 8.38855
  8.58867 14.9563 28.5478
  8.19239 14.9707 6.51095
  8.60657 15.0733 26.9993
  10.9215 14.2283 8.41469
  10.5462 14.0865 28.3487
  18.795 9.74654 11.466
  19.0126 9.73794 31.4658
  18.4071 9.17667 10.5303
  17.7733 9.02195 30.9335
  11.2044 1.97945 7.60597
  11.4738 2.48898 27.5811
  12.5757 3.82258 7.02585
  12.1311 3.60818 27.116
  15.2893 18.6011 12.787
  14.7186 18.0208 32.6581
  14.3856 17.1739 13.4522
  13.9925 16.9599 33.7659
  14.5605 8.8079 7.0801
  14.7766 8.54295 27.0746
  13.1265 7.9101 7.37698
  13.4755 7.55783 27.3723
  13.5645 11.0641 3.36521
  13.8002 11.3384 23.3106
  12.0971 10.9861 3.24173
  11.8486 10.9269 23.599
  17.2561 3.8532 10.538
  17.1918 4.02757 30.2207
  18.1308 3.11402 8.69554
  18.3538 3.80228 29.1941
  16.6482 14.7749 0.164851
  16.894 14.3241 20.1847
  18.5598 15.2188 0.737345
  18.9602 15.1709 20.2881
  1.10901 12.81 16.9409
  0.901962 12.3526 36.5487
  2.63509 11.907 17.1097
  2.23576 12.3886 36.8561
  19.7013 5.32008 4.35645
  0.303757 5.58567 24.4301
  18.341 6.28733 4.13582
  18.6787 6.34721 23.7882
  12.9025 11.9996 7.72769
  12.9927 11.5386 27.423
  11.7702 12.9847 7.04315
  11.3449 12.9099 27.2636
  16.4489 15.789 6.37945
  16.8792 14.9935 26.6309
  16.5275 14.0459 5.12238
  16.2428 14.6029 24.9789
  15.616 4.38788 16.5932
  15.5365 4.60324 36.9447
  15.0296 6.12919 16.5082
  14.5583 6.348 36.306
  16.7271 16.9061 16.1201
  16.6164 16.9557 35.3099
  17.45 17.7598 15.1643
  18.0874 17.7128 36.014
  8.36184 3.48564 11.7618
  8.65506 3.57509 31.7582
  9.88845 4.11506 11.7919
  10.2245 4.77706 31.8058
  8.60205 4.70583 15.5403
  8.37558 4.61998 35.193
  9.27506 5.66699 14.3742
  9.07617 6.29613 34.6408
  2.64361 13.5236 3.37253
  3.04189 13.4942 24.1127
  1.27349 12.0935 3.84913
  1.32369 12.2759 23.8947
  9.13172 0.184594 17.1192
  9.10598 0.1516 37.4925
  10.0581 1.50254 17.2774
  9.99522 2.0256 37.1849
  0.462676 4.22109 3.50768
  0.52377 3.46277 23.7808
  1.35665 2.95075 1.94962
  1.50185 3.31207 22.0332
  10.3733 12.1404 2.23528
  10.511 12.2821 22.5266
  10.2846 10.4772 2.67385
  10.3833 10.5011 23.265
  9.74904 13.8757 18.0839
  9.18857 13.8817 37.8237
  8.77886 14.4204 18.9709
  8.79484 14.2389 39.3271
  5.31991 2.30083 5.50224
  5.09935 1.98816 26.2673
  4.02485 1.48211 6.50246
  3.81744 0.852088 26.5811
  16.6891 4.34065 5.35058
  16.5073 3.55846 25.4853
  15.924 2.20957 4.95365
  16.3121 2.38357 24.2325
  6.61592 2.31638 20.0255
  7.50316 2.24776 39.6523
  7.78786 3.49156 19.1142
  7.75661 3.93549 39.1112
  10.5762 7.6179 1.89273
  10.2781 8.18597 21.7781
  9.37058 6.41352 1.45527
  9.41766 6.34137 21.288
  9.77666 7.79908 9.27872
  9.98327 7.47425 29.7159
  11.6805 8.34649 9.95686
  11.397 7.98078 29.798
  4.47383 3.57912 7.93958
  3.85881 3.66244 27.792
  3.76876 5.21761 7.29968
  3.53407 5.22491 27.6989
  8.96301 17.4651 1.45598
  9.4944 16.8777 21.5508
  7.98058 18.3431 0.835257
  7.76023 18.2821 20.793
  7.67717 6.05529 12.0817
  7.67535 5.67715 31.2212
  8.46182 7.38337 11.4707
  8.24883 7.71928 31.4583
  17.3532 7.87919 13.7324
  17.6431 8.03898 33.9184
  16.2983 7.18983 14.8794
  16.3397 7.3299 34.5854
  13.7708 14.1616 3.34947
  13.609 13.6227 23.3947
  13.1926 14.4358 2.20119
  13.6702 14.5366 21.7716
  19.5046 7.58614 16.451
  18.81 7.75207 36.0799
  17.8359 8.28463 16.7073
  18.0529 8.57617 36.721
  0.116536 19.7333 16.6973
  19.8484 19.6725 37.0113
  2.02944 19.9417 16.7374
  1.96604 19.659 35.8635
  7.852 8.85442 9.86783
  7.77474 9.17487 30.8472
  5.95394 9.64533 10.6735
  5.95185 9.5783 30.814
  12.0231 11.4313 16.7189
  11.2999 11.2691 37.0058
  11.8698 10.1849 17.8962
  11.8684 10.1112 37.8683
  9.58926 16.4082 14.1603
  9.88012 16.9219 34.0783
  10.4728 14.9231 13.9073
  10.4181 15.1775 33.3239
  8.76414 4.27387 17.9136
  9.32153 4.03812 37.7439
  10.196 3.56387 17.8305
  10.0343 3.60284 38.4806
  1.87157 12.2235 10.3945
  2.34583 11.6498 30.1142
  1.50157 10.7262 9.72109
  0.92516 10.3447 29.8914
  10.0933 18.9909 15.9727
  11.0634 18.8726 36.2273
  10.1117 0.0855019 15.2619
  10.073 0.237828 35.1427
  15.0246 10.9007 12.492
  14.8748 11.1387 33.1447
  15.8836 9.1523 12.1513
  15.9815 8.76549 32.5879
  0.713053 9.71449 6.86892
  1.0736 9.275 26.6791
  0.0883534 11.1519 7.65051
  19.9779 10.5004 27.7851
  10.7743 9.77121 12.1492
  10.6156 9.53936 31.9158
  9.71795 8.51613 12.2582
  9.11873 8.8398 32.1293
  4.07159 3.59624 12.0086
  3.89544 4.20816 32.4652
  2.25375 3.05157 11.9232
  2.59248 3.24571 32.1208
  6.56258 0.497147 5.22402
  7.02157 0.0115895 24.692
  7.81761 1.71674 5.3366
  7.72711 1.44208 25.3945
  6.82746 4.32043 7.57118
  7.8292 4.25933 27.5541
  6.6228 4.38291 9.27646
  6.76057 3.76193 28.3108
  2.12063 10.4663 14.265
  1.58862 11.0243 33.8331
  0.530634 9.76087 13.2913
  0.459138 9.35023 34.1843
  3.90048 13.2126 10.8478
  3.9661 13.567 30.9961
  5.8806 13.6167 11.2347
  5.73027 13.7912 30.9146
  0.556119 11.9378 1.46199
  0.616848 12.9529 21.9309
  0.497892 11.9251 20.0358
  0.396383 12.1181 39.8704
  0.927023 13.7144 18.4915
  1.15127 13.9458 38.6161
  1.86497 13.4662 19.5052
  2.52996 13.2097 39.6366
  2.15359 6.97542 9.31157
  2.61853 7.14813 29.2006
  0.80854 6.46867 8.42474
  1.01931 6.51169 28.0122
  14.0312 12.2141 1.12958
  14.7981 12.5708 20.8538
  16.3494 11.3524 1.22637
  15.8452 11.5563 20.8329
  7.59433 17.0916 16.1675
  7.6417 17.0723 36.5533
  5.72037 17.0365 15.3252
  5.60021 16.6807 35.4985
  15.5815 15.0244 10.5764
  16.0488 14.8208 30.234
  14.8836 13.7291 10.1302
  14.8021 13.7556 30.1661
  11.701 16.7541 3.69474
  11.2299 16.4527 24.0478
  11.3814 14.4922 4.24619
  11.0571 14.1719 24.0415
  0.887659 15.4973 7.50542
  0.864037 15.9411 27.8452
  1.34592 15.9813 9.02153
  0.980537 15.3199 28.7649
  8.9129 14.5802 1.96387
  8.63748 14.8703 22.3473
  8.03365 13.2831 1.95967
  8.05955 13.3382 22.0668
  14.3292 7.60286 11.4859
  14.4664 7.43883 30.6797
  14.4065 8.63031 10.0328
  14.2185 8.88436 30.1362
  17.6891 5.98604 1.63502
  17.7439 6.5873 21.5573
  18.1275 6.74061 0.378766
  17.909 6.50425 19.9039
  7.77379 12.8804 0.610817
  8.1886 12.3265 20.1575
  8.08274 10.8661 0.371755
  8.58586 10.981 20.4146
  12.7833 3.55118 10.5492
  12.2864 2.7704 29.8025
  12.5918 4.81694 8.90122
  12.9997 4.35145 29.5102
  6.70249 10.4638 19.2622
  7.16838 10.2096 39.4841
  5.6529 9.13713 19.5016
  5.62499 8.88085 39.5346
  5.09637 4.14038 17.4408
  5.14617 4.08704 37.9581
  4.29026 2.61538 18.2655
  4.42384 2.68648 37.8694
  5.03573 14.1191 3.6044
  5.25193 14.4091 24.0189
  5.65982 13.0384 4.53872
  5.94567 12.9512 24.4378
  5.23125 3.31077 2.36568
  5.14808 2.9782 21.7354
  3.80999 2.2694 2.91795
  4.14137 2.25851 22.5047
  4.01703 8.28992 3.77959
  4.03854 7.93044 23.2941
  4.62928 9.36602 3.66394
  4.78614 10.0748 23.4053
  11.9706 14.8532 20.0678
  12.3656 15.2035 39.8726
  12.4897 13.8099 19.7475
  13.1431 13.6592 39.9738
  2.7627 6.75917 2.73172
  2.9185 6.92282 22.2365
  3.42393 5.58173 2.60967
  3.47033 5.25738 21.8145
  4.9044 5.62149 10.232
  4.91452 5.62577 30.7565
  5.26791 7.13481 10.4336
  4.79848 7.53082 30.2422
  5.31992 11.6431 13.004
  5.46884 11.4154 33.3979
  7.22443 10.6568 13.318
  7.3936 10.9563 32.7974
  0.538708 2.038 8.84427
  0.413445 2.47278 29.1997
  2.0665 1.95756 9.70709
  1.76184 2.26112 29.6187
  15.2903 13.9305 16.9016
  15.2717 13.5177 36.9162
  17.3714 13.5664 16.8426
  17.1771 14.0393 36.9931
  18.3386 12.3969 10.5895
  17.5671 12.6739 30.3794
  16.2623 11.9801 9.9676
  16.5359 11.9344 29.913
  11.2192 12.4148 9.21542
  10.649 12.2806 29.3528
  9.48428 12.7101 10.4691
  9.19683 13.1143 30.2685
  12.5216 2.66658 16.0982
  12.3385 2.25255 35.707
  13.4349 4.10182 16.3029
  13.0775 3.54948 36.1784
  8.59488 15.3348 16.3947
  8.69074 15.0906 36.5029
  10.3571 16.2999 16.4124
  10.4797 15.8271 36.2408
  5.65697 8.34786 17.1907
  5.56286 7.22563 37.1421
  5.04254 5.93906 17.3154
  5.11405 6.78757 36.5419
  15.2972 4.87325 10.9942
  15.4271 4.81665 30.6683
  15.849 3.5396 12.5151
  15.6595 3.64974 32.0445
  19.4599 2.0446 3.5166
  19.5938 1.80713 24.0558
  18.5213 0.901192 4.7314
  18.0685 1.03046 24.7877
  1.82386 16.8394 18.0995
  1.18263 17.3483 37.8901
  2.06443 17.5563 19.5623
  2.1387 17.4285 39.2825
  14.2771 4.27336 19.7494
  13.7123 4.83636 39.9361
  12.318 5.0491 19.2248
  12.8302 5.39961 39.635
  15.5093 12.6731 18.6775
  15.622 12.2678 38.5059
  15.2336 14.2462 19.3035
  15.5626 14.4335 38.9591
  13.1433 14.4743 11.9132
  13.75 14.5233 31.7786
  12.5687 13.3481 12.6001
  12.8983 13.4761 32.4358
  3.23136 15.9003 2.68138
  3.77198 16.0192 22.5587
  5.17656 16.0997 2.0251
  5.01646 15.9689 22.0173
  6.91581 1.34508 7.49813
  7.28015 2.15511 27.6574
  8.57639 1.76295 8.48697
  8.31373 1.79076 28.5297
  2.08472 9.24961 17.2021
  1.87151 9.68475 36.9046
  0.767993 8.58028 16.7492
  0.795006 8.57474 36.4542
  11.1606 0.142833 4.32745
  11.4231 19.7507 24.4739
  12.7106 19.1161 3.90588
  12.548 19.0425 23.257
  3.19703 2.14385 14.1375
  2.69512 1.79036 33.7217
  3.03132 0.48058 12.4959
  3.45258 0.792091 32.2153
  2.57484 16.5209 14.4225
  2.70175 16.1238 34.2266
  2.8678 15.5641 16.1097
  2.98499 15.5238 35.9384
  13.1425 17.7691 10.8332
  12.8943 17.9405 30.3594
  14.5186 18.3883 10.7578
  14.6034 17.8746 30.9858
  1.69116 3.7277 5.99961
  1.67605 3.52182 25.9985
  1.00966 4.84262 6.24191
  0.78482 4.71639 26.0754
  10.6124 19.73 1.25794
  10.727 19.5915 21.1174
  10.2418 18.8415 2.19255
  10.9229 18.92 21.5553
