&CONTROL
  calculation  = 'scf' ,
  restart_mode = 'from_scratch' ,
  pseudo_dir = './../potentials/' ,
  tprnfor = .true.
  tstress = .true.
/
&SYSTEM
  ibrav = 0
  A =    1.0000
  nat = 21
  ntyp = 3
  ecutwfc  =  47.0 ,
  ecutrho  = 326.0 ,
  occupations = 'smearing' ,
  degauss  = 0.02 ,
  smearing = 'mp',
  nspin = 1 ,
  exxdiv_treatment = 'gygi-baldereschi' ,
/
&ELECTRONS
  conv_thr = 1.0e-04 ,
  mixing_beta = 0.7 ,
/
CELL_PARAMETERS {alat}
 20.000000000000000   0.000000000000000   0.000000000000000
  0.000000000000000  20.000000000000000   0.000000000000000
  0.000000000000000   0.000000000000000  20.000000000000000
ATOMIC_SPECIES
   C   12.01060  C.pbe-n-kjpaw_psl.1.0.0.UPF
   O   15.99940  O.pbe-n-kjpaw_psl.1.0.0.UPF
   H    1.00750  H.pbe-kjpaw_psl.1.0.0.UPF
ATOMIC_POSITIONS {alat}
C   7.37834   8.23532   6.36102
C   8.64872   8.57842   6.82358
O   6.99080   6.92918   6.31490
H   7.71064   6.35446   6.63158
C   6.49862   9.23256   5.94288
C   6.88746   10.57036   5.98720
C   8.15730   10.91658   6.45012
C   9.03660   9.91682   6.86742
H   5.50770   8.96824   5.58102
H   6.19652   11.34326   5.65904
C   8.56822   12.33176   6.49580
H   10.02824   10.17952   7.22838
H   9.34098   7.80666   7.15108
C   8.40346   13.11622   7.57128
H   9.02432   12.71102   5.58148
C   8.81998   14.56806   7.60260
H   7.94524   12.72400   8.47646
O   10.24390   14.66874   7.62180
H   8.41106   15.05290   8.49338
H   8.43414   15.08448   6.71914
H   10.57362   14.24974   8.43748
K_POINTS automatic
  2 2 2  1 1 1