POSCAR file written by OVITO Basic 3.8.4
1
20 0 0
0 20 0
0 0 20
C O H 
9 92 190 
Cartesian
  7.36335 8.28625 6.34084
  8.59986 8.56139 6.81997
  6.47721 9.30393 5.90438
  6.92602 10.5066 5.97936
  8.08413 10.8595 6.44824
  9.00686 9.89116 6.8682
  8.49713 12.2969 6.50867
  8.36926 13.1486 7.62171
  8.87206 14.5455 7.67906
  7.03787 6.93596 6.30625
  10.2269 14.7017 7.6746
  18.1264 9.96955 11.2471
  12.3062 2.59206 7.61296
  14.8032 17.957 13.682
  13.6324 8.83385 7.28041
  12.8552 11.6295 2.94507
  17.5685 3.16869 9.87295
  17.6635 15.4331 0.405114
  1.55739 11.797 16.7856
  19.6432 6.4225 3.90474
  12.6101 12.6593 7.88533
  16.9783 15.3733 5.35604
  15.6567 5.59474 16.1461
  16.8589 18.0765 15.6112
  9.21432 4.16306 12.4819
  8.38178 5.58537 15.3723
  1.8503 13.0937 3.59442
  10.0725 0.499477 17.4752
  1.42861 2.98212 3.09873
  9.73823 11.4161 2.54157
  8.64286 13.8543 18.5484
  4.45902 1.53765 5.52577
  16.3487 3.2112 4.24888
  7.10668 3.32566 19.774
  10.0621 7.38573 1.25753
  10.6684 7.69627 10.1543
  3.51152 4.45684 8.07407
  8.45541 17.1341 0.716476
  7.59592 6.62116 11.1934
  16.6685 8.11911 14.4766
  13.0119 14.1404 2.55809
  18.1098 7.4253 16.7828
  1.12518 19.1015 16.7015
  6.91701 9.35973 10.0365
  12.1189 10.4934 16.962
  10.4935 16.0191 14.0651
  10.0518 4.56256 18.2555
  1.65787 11.154 10.7802
  10.6501 19.1875 15.2205
  16.0029 10.0754 12.6248
  0.716158 10.8219 6.87304
  9.93429 9.78751 12.1932
  3.52791 3.06294 11.9071
  7.51184 0.836449 4.57857
  7.45042 4.42982 8.56807
  1.04195 10.3163 14.193
  5.03961 13.5845 10.2844
  1.05651 12.5829 0.72825
  1.87265 14.3066 19.1183
  1.67038 5.95935 8.82947
  14.9905 11.4193 1.19881
  6.66396 17.4458 16.1562
  14.9509 14.7157 9.97591
  11.8926 15.5364 3.83599
  0.549187 15.795 8.64269
  7.89302 14.25 2.39923
  14.6499 8.50344 10.7192
  18.2425 5.66184 0.826544
  7.657 11.7673 0.655569
  12.9997 3.41539 9.66066
  5.75908 9.98382 19.5166
  4.21493 3.65149 18.0392
  5.10197 13.624 4.20382
  4.9905 2.28041 2.74294
  4.87389 8.58001 3.50715
  12.9926 14.4244 19.9017
  3.68617 6.19363 2.34291
  4.48513 6.38742 10.3708
  6.30399 11.6872 13.1647
  1.07824 2.8705 9.37267
  16.2489 14.3643 16.8451
  17.1457 11.9751 10.7778
  10.5989 12.6027 10.3546
  13.382 2.84214 16.3704
  9.56699 16.0127 16.2308
  5.88102 6.59331 16.9206
  15.2019 3.87474 11.3425
  19.1851 0.854327 4.20614
  2.12973 17.8667 18.3995
  13.7679 5.35813 19.4417
  15.271 13.2194 19.1964
  13.597 13.7946 12.126
  4.43845 16.3838 2.40061
  7.6852 1.28699 7.88686
  1.19907 9.52885 16.9929
  12.2112 0.0369023 4.09432
  2.73829 0.757465 13.3351
  2.34071 15.9412 15.1193
  13.4386 18.5689 10.6121
  0.887458 4.01491 5.70498
  10.8056 19.6699 2.2667
  7.8471 6.24004 6.57365
  5.65055 8.86304 5.60755
  6.04541 11.119 5.83292
  10.0866 10.1122 7.4865
  9.36821 7.68692 7.13853
  8.9647 12.8607 5.73026
  8.12383 12.8793 8.73828
  8.40915 14.8429 8.7009
  8.167 14.8959 6.86741
  10.7116 14.4396 8.66547
  19.0779 9.99147 11.7169
  17.875 9.31062 10.7314
  11.3886 2.46442 7.31405
  12.7103 3.76475 7.09472
  14.7956 18.2677 13.0477
  14.0849 17.0472 13.6293
  14.8094 8.5726 7.26611
  13.392 7.75818 7.1066
  13.5857 11.5252 3.3976
  12.5139 10.63 3.38899
  17.2421 3.82224 10.3634
  18.1203 3.38421 9.08953
  16.9533 14.5856 0.0250685
  18.5988 15.2024 0.221655
  1.17655 12.6952 16.6113
  2.56977 12.1123 17.1447
  19.9721 5.39509 4.20738
  18.8049 6.16096 3.60682
  12.9226 11.8602 7.5547
  11.7524 12.9374 7.2357
  17.4626 15.305 6.47469
  16.4006 14.8008 5.12949
  15.3676 4.74022 16.7491
  15.0513 6.1624 16.5
  16.3141 17.0684 15.543
  17.6124 18.0404 15.1491
  8.50798 3.62236 11.959
  10.3624 4.40933 12.2864
  8.60553 4.61223 15.4608
  9.47943 5.62406 15.1257
  2.61525 13.3592 3.37745
  1.53067 11.9551 3.73
  9.35582 19.921 17.2638
  9.80889 1.29014 17.3729
  0.847017 3.68413 3.51962
  1.23696 2.99983 1.9619
  10.4333 11.9622 2.33533
  10.1058 10.2917 2.72802
  9.33782 13.6187 17.8911
  8.52716 14.5482 19.3478
  5.264 2.23297 5.5806
  4.17894 1.15649 6.11973
  16.7691 3.64141 5.09881
  16.1606 2.45546 4.47577
  7.56919 2.28835 19.7519
  7.7105 3.90416 19.0444
  10.4073 8.04407 2.02676
  9.73022 6.33491 1.4694
  10.3479 7.6245 9.47099
  11.678 8.10672 9.75245
  3.4687 3.55912 7.87512
  3.74374 4.98772 7.45305
  9.21495 16.6652 1.52614
  8.1947 17.8483 1.11754
  7.95998 5.78901 11.4815
  8.38622 7.11453 11.4969
  17.0613 7.85033 13.8203
  16.286 7.25525 15.0525
  14.028 14.3687 3.26786
  13.1167 14.684 1.8887
  19.0827 7.72618 16.3806
  17.6856 8.03747 16.9939
  0.265728 19.7578 16.9123
  1.96186 19.4667 16.342
  7.81615 9.11967 10.6437
  6.43722 8.87906 10.6403
  11.4215 11.1132 16.6301
  11.8812 10.2663 17.9015
  9.40901 16.5859 14.252
  10.541 14.9266 14.2047
  9.383 4.33873 17.8453
  10.5004 3.73186 18.5435
  2.4839 11.6482 10.1162
  0.853544 10.7927 10.4337
  10.6457 18.7845 16.3559
  9.81608 19.9607 15.0342
  15.4194 11.0128 12.6844
  15.4476 9.16612 12.7242
  1.13674 9.65205 6.4796
  0.174077 10.6666 7.40548
  10.9844 9.99669 12.0288
  9.86004 8.57052 12.1176
  4.32631 3.64069 12.0078
  2.73884 3.33517 12.3592
  7.11335 0.209883 4.88862
  7.85721 1.4289 5.28276
  7.40357 4.27962 7.54615
  6.39487 3.86589 9.06447
  1.98713 10.5854 13.8032
  0.61949 9.51811 13.5296
  4.19416 13.0536 10.9043
  5.50656 13.4561 11.1595
  0.621405 12.4151 1.69543
  0.430595 12.0839 19.8776
  1.21357 13.9596 18.3794
  1.9395 13.4234 19.4279
  2.02199 6.84812 8.91647
  0.696097 6.35064 8.33405
  14.5248 12.5472 1.08176
  15.9992 11.2758 0.960947
  7.46152 16.9335 16.126
  5.69886 16.8384 15.8189
  15.8359 15.0521 10.6823
  14.533 13.5836 9.93401
  11.5459 16.2465 3.81459
  11.0851 14.6512 3.97071
  0.781017 15.4944 7.77942
  1.46898 15.6759 8.88524
  8.72799 14.883 2.22388
  8.33655 13.5194 2.25257
  14.3388 7.61987 10.8239
  14.3401 8.73731 9.61434
  18.174 6.42528 1.84245
  18.4086 6.45499 0.218915
  7.74645 12.5389 0.0817139
  8.35339 11.1831 0.43943
  12.3902 3.1267 10.2766
  12.7823 4.39776 9.56636
  6.84592 9.87467 19.5849
  5.78583 8.84825 19.6301
  5.22248 4.03618 18.2217
  4.33716 2.59859 18.0341
  5.55634 14.4638 4.41949
  5.92637 13.1205 4.48041
  5.3557 2.90303 1.8886
  3.86874 2.41306 2.56558
  4.10891 8.12622 3.28154
  4.95586 9.5039 3.20369
  12.0261 15.0699 19.9249
  12.6063 13.3245 19.9568
  2.70927 6.57736 2.12142
  3.45401 5.30816 2.65231
  4.88022 5.53141 10.4853
  5.10981 7.24847 10.1194
  5.42466 11.2902 13.0711
  7.25295 11.0137 13.0986
  0.517048 2.38919 9.27862
  1.64351 2.12928 9.60748
  15.7066 13.572 16.8481
  17.1068 13.9053 16.982
  17.5138 12.9193 10.6609
  16.3834 11.6106 9.83723
  11.1843 12.1108 9.37897
  9.55012 12.7623 10.1789
  12.82 2.13348 16.0807
  13.3642 3.87742 16.2598
  9.18698 15.3359 16.1154
  10.3501 15.6694 16.2218
  5.59202 7.60804 17.3142
  5.02733 6.38533 16.672
  15.4044 4.99513 10.8372
  15.9618 3.96449 12.3473
  19.1903 1.74276 4.04776
  18.5403 0.894821 4.99859
  1.43718 17.4575 18.2282
  2.09561 17.5469 19.3068
  13.7449 4.66769 19.9656
  12.5946 5.46219 19.3442
  16.1351 12.7294 19.0657
  15.515 14.0737 19.1579
  13.6574 15.0569 11.7125
  12.6549 13.242 12.4443
  3.78873 16.0751 2.82558
  4.83516 15.7718 1.79932
  7.07701 2.11663 7.55346
  8.27997 1.66089 8.69643
  2.03712 9.69444 16.9276
  0.84066 8.68971 17.0443
  11.167 19.9125 4.79876
  12.7701 18.8715 4.20586
  2.8858 1.54413 13.6321
  2.98958 0.661494 12.4392
  2.50506 16.5203 14.1782
  2.8627 15.464 15.5221
  13.1604 17.6298 10.7491
  14.572 18.7143 10.4526
  1.54644 3.53909 5.75095
  1.17547 4.87498 6.23921
  10.7119 19.7734 1.40573
  10.7799 18.7078 2.19795
